
630.0
810.0
960.0
630.0
930.0
840.0
630.0
840.0
840.0
870.0
870.0
630.0
840.0
870.0
840.0
630.0
900.0
660.0
630.0
630.0
900.0
630.0
870.0
900.0
630.0
1020.0
1260.0
840.0
990.0
630.0
630.0
810.0
630.0
630.0
900.0
900.0
810.0
630.0
630.0
630.0
840.0
630.0
630.0
630.0
840.0
630.0
870.0
630.0
630.0
630.0